Instance Name : r204
Date : 2022-07-18
Solution
Route 1 : 52 31 88 7 82 48 19 11 62 10 70 30 32 90 63 64 49 36 47 46 8 45 17 84 5 60 83 18 89
Route 2 : 53
Route 3 : 2 57 42 43 15 41 22 75 56 23 67 39 4 72 74 73 21 40 58
Route 4 : 6 94 95 92 98 85 91 44 14 38 86 16 61 93 99 96 59 97 87 37 100 13
Route 5 : 27 69 1 50 76 3 79 33 81 9 51 20 66 65 71 35 34 78 29 24 55 25 54 80 68 77 12 26 28
